
Gurobi 10.0.0 (win64) logging started Thu Jun 13 14:32:49 2024

Set parameter LogFile to value "C:\Users\ealvarezq\Documents\GitHub\Comillas\Models\JointResearch\05. Models\06.Benchmarking\K.Investments_per_hour\RTS24_mod2_ByStages_nc150/openStarNet_RTS24_mod2_ByStages_nc150.log"
Set parameter Method to value 2
Set parameter MIPFocus to value 1
Set parameter Presolve to value 2
Set parameter RINS to value 100
Set parameter MIPGap to value 0.01
Set parameter Threads to value 9
Set parameter TimeLimit to value 259200
Set parameter IterationLimit to value 760000000
Gurobi Optimizer version 10.0.0 build v10.0.0rc2 (win64)

CPU model: Intel(R) Core(TM) i7-8700 CPU @ 3.20GHz, instruction set [SSE2|AVX|AVX2]
Thread count: 6 physical cores, 12 logical processors, using up to 9 threads

Optimize a model with 53253 rows, 35876 columns and 144953 nonzeros
Model fingerprint: 0xdb4c9886
Variable types: 35855 continuous, 21 integer (21 binary)
Coefficient statistics:
  Matrix range     [1e-03, 1e+03]
  Objective range  [1e+00, 1e+00]
  Bounds range     [4e-05, 3e+00]
  RHS range        [4e-05, 3e+00]
Presolve removed 31691 rows and 18156 columns
Presolve time: 0.21s
Presolved: 21562 rows, 17720 columns, 77799 nonzeros
Variable types: 17699 continuous, 21 integer (21 binary)
Root relaxation presolved: 21562 rows, 17720 columns, 77799 nonzeros

Root barrier log...

Ordering time: 0.01s

Barrier statistics:
 Dense cols : 21
 AA' NZ     : 1.445e+05
 Factor NZ  : 4.142e+05 (roughly 20 MB of memory)
 Factor Ops : 8.494e+06 (less than 1 second per iteration)
 Threads    : 8

                  Objective                Residual
Iter       Primal          Dual         Primal    Dual     Compl     Time
   0   6.52251536e+05 -4.14939201e+08  5.23e+00 5.72e+02  2.31e+04     0s
   1   9.73863600e+04 -1.06368748e+08  6.72e-01 1.52e-08  3.17e+03     0s
   2   3.91020194e+04 -2.26377059e+07  1.75e-01 7.41e-09  5.68e+02     0s
   3   1.96199126e+04 -2.25027294e+06  6.05e-03 7.31e-10  4.60e+01     0s
   4   1.26325012e+04 -1.60283471e+05  2.98e-05 1.35e-10  3.45e+00     0s
   5   4.99347867e+03 -4.65808610e+04  1.12e-06 3.64e-11  1.03e+00     0s
   6   1.71066103e+03 -1.24322174e+04  2.19e-07 1.09e-11  2.82e-01     0s
   7   5.07397153e+02 -4.18416561e+03  3.09e-08 4.48e-12  9.35e-02     0s
   8   2.56575348e+02 -8.04753361e+02  6.80e-09 3.33e-12  2.11e-02     0s
   9   1.52058594e+02 -2.01845750e+02  2.18e-09 2.95e-12  7.05e-03     0s
  10   1.01702700e+02 -5.33797705e+01  9.47e-10 2.72e-12  3.09e-03     0s
  11   7.81324063e+01  5.76407355e+00  5.04e-10 1.89e-12  1.44e-03     0s
  12   6.72677165e+01  2.73203046e+01  3.05e-10 1.28e-12  7.96e-04     0s
  13   6.00934335e+01  3.64304500e+01  1.79e-10 3.36e-12  4.71e-04     0s
  14   5.47396240e+01  4.10162258e+01  8.38e-11 5.10e-12  2.73e-04     0s
  15   5.33340042e+01  4.41607862e+01  5.99e-11 9.75e-13  1.83e-04     0s
  16   5.18307339e+01  4.58336897e+01  3.40e-11 9.89e-13  1.19e-04     1s
  17   5.09012469e+01  4.68692087e+01  1.77e-11 1.03e-12  8.03e-05     1s
  18   5.04098594e+01  4.72149720e+01  9.26e-12 2.27e-12  6.36e-05     1s
  19   5.02705502e+01  4.85003463e+01  6.74e-12 1.37e-12  3.53e-05     1s
  20   5.01190168e+01  4.87630875e+01  7.52e-12 1.04e-12  2.70e-05     1s
  21   5.00176416e+01  4.91569109e+01  5.58e-12 1.04e-12  1.71e-05     1s
  22   4.99422769e+01  4.96519317e+01  1.76e-11 3.32e-12  5.78e-06     1s
  23   4.99050525e+01  4.97801104e+01  2.07e-11 2.30e-12  2.49e-06     1s
  24   4.98726210e+01  4.98317356e+01  3.58e-11 1.59e-12  8.14e-07     1s
  25   4.98620903e+01  4.98583629e+01  9.70e-11 3.75e-12  7.43e-08     1s
  26   4.98611187e+01  4.98601613e+01  1.20e-10 2.20e-12  1.91e-08     1s
  27   4.98610205e+01  4.98605959e+01  6.31e-11 2.81e-12  8.46e-09     1s
  28   4.98609776e+01  4.98607378e+01  6.46e-11 4.73e-12  4.78e-09     1s
  29   4.98609396e+01  4.98608120e+01  2.06e-10 6.68e-12  2.54e-09     1s
  30   4.98609191e+01  4.98608891e+01  6.34e-11 1.80e-11  5.98e-10     1s
  31   4.98609108e+01  4.98609065e+01  6.57e-10 2.03e-12  8.57e-11     1s
  32   4.98609084e+01  4.98609084e+01  3.00e-09 5.33e-12  6.85e-13     1s

Barrier solved model in 32 iterations and 0.66 seconds (0.60 work units)
Optimal objective 4.98609084e+01


Root relaxation: objective 4.986091e+01, 2804 iterations, 0.54 seconds (0.48 work units)

    Nodes    |    Current Node    |     Objective Bounds      |     Work
 Expl Unexpl |  Obj  Depth IntInf | Incumbent    BestBd   Gap | It/Node Time

     0     0   49.86091    0   17          -   49.86091      -     -    1s
H    0     0                     100.0719124   49.86091  50.2%     -    1s
     0     0   51.23123    0   15  100.07191   51.23123  48.8%     -    2s
H    0     0                      96.0730469   51.23123  46.7%     -    2s
H    0     0                      86.5923678   51.26435  40.8%     -    3s
     0     0   51.26435    0   15   86.59237   51.26435  40.8%     -    3s
     0     0   51.31888    0   15   86.59237   51.31888  40.7%     -    3s
     0     0   51.31888    0   15   86.59237   51.31888  40.7%     -    3s
     0     0   51.31917    0   15   86.59237   51.31917  40.7%     -    3s
     0     0   51.31917    0   15   86.59237   51.31917  40.7%     -    3s
     0     0   51.50192    0   15   86.59237   51.50192  40.5%     -    4s
     0     0   51.61069    0   15   86.59237   51.61069  40.4%     -    4s
     0     0   51.62152    0   16   86.59237   51.62152  40.4%     -    4s
     0     0   51.62152    0   16   86.59237   51.62152  40.4%     -    5s
     0     0   51.77441    0   12   86.59237   51.77441  40.2%     -    5s
     0     0   51.81157    0   12   86.59237   51.81157  40.2%     -    6s
     0     0   51.81523    0   12   86.59237   51.81523  40.2%     -    6s
     0     0   51.81630    0   12   86.59237   51.81630  40.2%     -    6s
     0     0   51.81630    0   12   86.59237   51.81630  40.2%     -    6s
     0     0   51.82026    0   12   86.59237   51.82026  40.2%     -    6s
     0     0   51.82026    0   12   86.59237   51.82026  40.2%     -    6s
     0     0   51.82026    0   11   86.59237   51.82026  40.2%     -    7s
H    0     0                      69.3797042   51.82026  25.3%     -   20s
     0     2   51.82026    0   11   69.37970   51.82026  25.3%     -   20s
    24    34   53.54916    5   15   69.37970   53.50458  22.9%  1395   26s
    61    65   58.48278    7   14   69.37970   53.50458  22.9%  1236   30s
H   88    76                      69.2556857   53.50458  22.7%  1135   33s
    94    85   64.07036   10   11   69.25569   53.50458  22.7%  1108   40s
H  101    85                      69.2262813   53.50458  22.7%  1101   40s
   155   127   61.00672    6   15   69.22628   54.44937  21.3%  1074   45s
   219   137     cutoff    9        69.22628   54.44937  21.3%  1007   51s
   263   147   60.15330    5   10   69.22628   55.06559  20.5%   993   56s
   331   154   65.01106    8   11   69.22628   55.06559  20.5%   945   60s
   413   168   64.55524    8    7   69.22628   55.06559  20.5%   889   66s
   473   185   67.27108   10    9   69.22628   55.06559  20.5%   861   70s
   542   183   67.70502    8   11   69.22628   58.64767  15.3%   834   75s
   653   209     cutoff    8        69.22628   59.79731  13.6%   804   81s
   746   218   68.11406   11    9   69.22628   59.79731  13.6%   771   86s
   837   227     cutoff    8        69.22628   60.95537  11.9%   755   93s
   870   227     cutoff   10        69.22628   61.75997  10.8%   755   96s
   984   242   68.70833   16    5   69.22628   62.05825  10.4%   731  102s
  1060   238   64.81822   11    9   69.22628   62.39819  9.86%   711  105s
  1142   241   68.67522   14    7   69.22628   62.39819  9.86%   694  115s
  1231   236   66.91298   11    9   69.22628   63.25609  8.62%   679  122s
  1309   251   67.43097   10    9   69.22628   63.54290  8.21%   668  125s
  1506   304   65.72113    9    7   69.22628   63.80519  7.83%   632  131s
* 1599   304              21      69.1739395   63.80519  7.76%   623  131s
  1609   298     cutoff   12        69.17394   64.14431  7.27%   621  135s
  1827   284     cutoff   15        69.17394   64.66008  6.53%   596  142s
  1932   270     cutoff   10        69.17394   64.95835  6.09%   591  147s
  2038   258     cutoff   16        69.17394   65.29172  5.61%   585  151s
  2150   244     cutoff   14        69.17394   65.47596  5.35%   578  156s
  2319   231   66.86186    9    9   69.17394   65.50487  5.30%   558  160s
  2496   198   68.82506   12    8   69.17394   66.07641  4.48%   541  192s
  2612   183   67.11591   14    6   69.17394   66.12762  4.40%   532  205s
  2644   124   67.86634   15    5   69.17394   66.20020  4.30%   529  210s
  2879    19   69.04625   13    7   69.17394   67.07487  3.03%   508  215s

Cutting planes:
  Implied bound: 27
  MIR: 773
  Relax-and-lift: 164

Explored 3166 nodes (1527780 simplex iterations) in 215.90 seconds (283.60 work units)
Thread count was 9 (of 12 available processors)

Solution count 7: 69.1739 69.2263 69.2557 ... 100.072

Optimal solution found (tolerance 1.00e-02)
Best objective 6.917393949369e+01, best bound 6.917393949369e+01, gap 0.0000%

Gurobi 10.0.0 (win64) logging started Thu Jun 13 14:36:42 2024

Set parameter LogFile to value "C:\Users\ealvarezq\Documents\GitHub\Comillas\Models\JointResearch\05. Models\06.Benchmarking\K.Investments_per_hour\RTS24_mod2_ByStages_nc150/openStarNet_RTS24_mod2_ByStages_nc150.log"
Set parameter Method to value 2
Set parameter MIPFocus to value 1
Set parameter Presolve to value 2
Set parameter RINS to value 100
Set parameter MIPGap to value 0.01
Set parameter Threads to value 9
Set parameter TimeLimit to value 259200
Set parameter IterationLimit to value 760000000
Gurobi Optimizer version 10.0.0 build v10.0.0rc2 (win64)

CPU model: Intel(R) Core(TM) i7-8700 CPU @ 3.20GHz, instruction set [SSE2|AVX|AVX2]
Thread count: 6 physical cores, 12 logical processors, using up to 9 threads

Optimize a model with 53253 rows, 35855 columns and 132332 nonzeros
Model fingerprint: 0x4f571267
Coefficient statistics:
  Matrix range     [1e-03, 1e+03]
  Objective range  [1e+00, 1e+00]
  Bounds range     [4e-05, 3e+00]
  RHS range        [4e-05, 2e+01]
Presolve removed 44856 rows and 20764 columns
Presolve time: 0.06s
Presolved: 8397 rows, 15368 columns, 37877 nonzeros

Ordering time: 0.00s

Barrier statistics:
 AA' NZ     : 2.185e+04
 Factor NZ  : 8.213e+04 (roughly 8 MB of memory)
 Factor Ops : 1.195e+06 (less than 1 second per iteration)
 Threads    : 9

                  Objective                Residual
Iter       Primal          Dual         Primal    Dual     Compl     Time
   0   6.48467575e+06 -2.89006246e+08  5.02e+01 9.04e+02  1.76e+05     0s
   1   3.64447959e+05 -2.12452630e+08  2.57e+00 2.18e-11  1.55e+04     0s
   2   5.24099155e+04 -4.02661485e+07  2.92e-01 2.73e-11  1.98e+03     0s
   3   2.52675827e+04 -4.52322454e+06  2.55e-02 1.82e-11  1.85e+02     0s
   4   1.83122077e+04 -1.56790949e+06  1.04e-03 2.05e-11  5.92e+01     0s
   5   1.36034718e+04 -1.55072755e+05  1.04e-11 7.28e-12  6.27e+00     0s
   6   5.63115066e+03 -4.37381970e+04  5.75e-12 5.46e-12  1.84e+00     0s
   7   2.08633650e+03 -9.03080913e+03  5.86e-12 4.14e-12  4.13e-01     0s
   8   6.05587935e+02 -2.16056865e+03  2.43e-12 6.19e-12  1.03e-01     0s
   9   2.52918248e+02 -7.53523411e+02  2.11e-12 3.95e-12  3.74e-02     0s
  10   1.48852285e+02 -1.55604499e+02  1.33e-12 3.15e-12  1.13e-02     0s
  11   1.05427554e+02 -1.82714206e+01  2.64e-12 4.28e-12  4.60e-03     0s
  12   8.70913383e+01  3.54118683e+01  4.69e-12 2.31e-12  1.92e-03     0s
  13   7.71685542e+01  5.66804220e+01  9.55e-12 1.78e-12  7.62e-04     0s
  14   7.26085557e+01  6.47856316e+01  3.44e-11 1.69e-12  2.91e-04     0s
  15   7.07214628e+01  6.74800132e+01  2.96e-11 1.17e-12  1.21e-04     0s
  16   6.95837375e+01  6.86261916e+01  9.59e-11 4.37e-12  3.56e-05     0s
  17   6.92858702e+01  6.89642158e+01  8.89e-11 1.73e-12  1.20e-05     0s
  18   6.92014234e+01  6.91322209e+01  1.53e-10 4.25e-12  2.57e-06     0s
  19   6.91756236e+01  6.91724419e+01  6.10e-11 4.81e-12  1.18e-07     0s
  20   6.91739520e+01  6.91739146e+01  7.81e-10 3.65e-12  1.39e-09     0s
  21   6.91739395e+01  6.91739395e+01  7.39e-11 8.11e-12  8.16e-15     0s

Barrier solved model in 21 iterations and 0.20 seconds (0.17 work units)
Optimal objective 6.91739395e+01

Crossover log...

    1760 DPushes remaining with DInf 0.0000000e+00                 0s
       0 DPushes remaining with DInf 0.0000000e+00                 0s

     445 PPushes remaining with PInf 0.0000000e+00                 0s
       0 PPushes remaining with PInf 0.0000000e+00                 0s

  Push phase complete: Pinf 0.0000000e+00, Dinf 1.9973272e-13      0s

Iteration    Objective       Primal Inf.    Dual Inf.      Time
     488    6.9173939e+01   0.000000e+00   0.000000e+00      0s

Use crossover to convert LP symmetric solution to basic solution...
Crossover log...

       0 DPushes remaining with DInf 0.0000000e+00                 0s

     265 PPushes remaining with PInf 0.0000000e+00                 0s
       0 PPushes remaining with PInf 0.0000000e+00                 0s

  Push phase complete: Pinf 0.0000000e+00, Dinf 3.5617454e-13      0s

Iteration    Objective       Primal Inf.    Dual Inf.      Time
     795    6.9173939e+01   0.000000e+00   0.000000e+00      0s

Solved in 795 iterations and 0.30 seconds (0.21 work units)
Optimal objective  6.917393949e+01
